<?xml version = "1.0" encoding="UTF-8" standalone="yes"?>
<CPLEXSolution version="1.2">
 <header
   problemName="IloCplex"
   solutionName="p0"
   solutionIndex="-1"
   objectiveValue="186806.00000000349"
   solutionTypeValue="3"
   solutionTypeString="primal"
   solutionStatusValue="127"
   solutionStatusString="integer feasible solution"
   solutionMethodString="mip"
   primalFeasible="0"
   dualFeasible="0"
   writeLevel="3"/>
 <quality
   epInt="1.0000000000000001e-05"
   epRHS="9.9999999999999995e-07"
   maxIntInfeas="1.000044491661356e-11"
   maxPrimalInfeas="6.3729636516233728e-09"
   maxX="710.00000000710043"
   maxSlack="90.000000000899945"/>
 <variables>
  <variable name="x1" index="0" value="710"/>
  <variable name="w0_0" index="1" value="710"/>
  <variable name="w0_2" index="3" value="710"/>
  <variable name="w1_0" index="5" value="710.00000000710043"/>
  <variable name="w1_1" index="6" value="710.00000000000011"/>
  <variable name="w1_2" index="7" value="709.99999999800002"/>
  <variable name="w2_3" index="12" value="-6.8311058870579536e-10"/>
  <variable name="w3_0" index="13" value="-6.3729636516233728e-09"/>
  <variable name="w3_2" index="15" value="710.00000000000011"/>
  <variable name="w4_0" index="17" value="709.99999999999932"/>
  <variable name="w4_3" index="20" value="710"/>
  <variable name="w5_1" index="22" value="710.00000000250043"/>
  <variable name="w5_2" index="23" value="710.00000000250043"/>
  <variable name="w6_0" index="25" value="710"/>
  <variable name="w6_3" index="28" value="709.99999999999932"/>
  <variable name="w7_2" index="31" value="710"/>
  <variable name="w8_0" index="33" value="710.00000000000011"/>
  <variable name="w8_1" index="34" value="1.0277290130034089e-10"/>
  <variable name="w8_2" index="35" value="710"/>
  <variable name="w9_1" index="38" value="710"/>
  <variable name="w10_3" index="44" value="710"/>
  <variable name="w11_1" index="46" value="710.00000000000011"/>
  <variable name="w11_2" index="47" value="710.00000000000011"/>
  <variable name="w12_2" index="51" value="710"/>
  <variable name="w13_1" index="54" value="710"/>
  <variable name="w14_0" index="57" value="710.00000000147884"/>
  <variable name="w14_1" index="58" value="709.99999999980344"/>
  <variable name="w15_3" index="64" value="710"/>
  <variable name="w16_3" index="68" value="710"/>
  <variable name="w17_1" index="70" value="710"/>
  <variable name="w18_0" index="73" value="710"/>
  <variable name="w18_1" index="74" value="710"/>
  <variable name="w19_2" index="79" value="710.00000000002478"/>
  <variable name="w19_3" index="80" value="9.9951158460954234e-10"/>
  <variable name="w20_1" index="82" value="710.00000000000011"/>
  <variable name="w20_2" index="83" value="710"/>
  <variable name="w21_0" index="85" value="709.99999999800195"/>
  <variable name="w22_0" index="89" value="-2.1064855898227205e-09"/>
  <variable name="w22_1" index="90" value="-2.1064855898227205e-09"/>
  <variable name="w22_2" index="91" value="-2.1064122777538537e-09"/>
  <variable name="w22_3" index="92" value="710.00000000210571"/>
  <variable name="w23_0" index="93" value="709.99999999800002"/>
  <variable name="w23_1" index="94" value="1.9999756467525355e-09"/>
  <variable name="w23_2" index="95" value="1.9990231692190863e-09"/>
  <variable name="w23_3" index="96" value="709.99999999800002"/>
  <variable name="w24_2" index="99" value="710"/>
  <variable name="w25_3" index="104" value="710"/>
  <variable name="w27_1" index="110" value="-1.5663243855376385e-09"/>
  <variable name="w28_0" index="113" value="710"/>
  <variable name="w28_2" index="115" value="710.00000000000011"/>
  <variable name="w28_3" index="116" value="1.999023169219071e-09"/>
  <variable name="w29_0" index="117" value="710"/>
  <variable name="w29_1" index="118" value="710"/>
  <variable name="w30_1" index="122" value="710"/>
  <variable name="w31_1" index="126" value="710"/>
  <variable name="w32_0" index="129" value="710"/>
  <variable name="w33_1" index="134" value="710"/>
  <variable name="w33_2" index="135" value="710"/>
  <variable name="w35_0" index="141" value="710"/>
  <variable name="w35_1" index="142" value="710"/>
  <variable name="w35_2" index="143" value="710"/>
  <variable name="w36_0" index="145" value="710"/>
  <variable name="w36_1" index="146" value="709.99999999987335"/>
  <variable name="w36_3" index="148" value="-9.9951158460954234e-10"/>
  <variable name="w37_0" index="149" value="709.99999999940837"/>
  <variable name="w37_1" index="150" value="710"/>
  <variable name="w37_2" index="151" value="709.9999999999992"/>
  <variable name="w38_0" index="153" value="710"/>
  <variable name="w38_1" index="154" value="710"/>
  <variable name="w39_0" index="157" value="710"/>
  <variable name="w39_2" index="159" value="710.00000000000011"/>
  <variable name="w40_2" index="163" value="-1.2972515151895282e-09"/>
  <variable name="w40_3" index="164" value="709.99999999975182"/>
  <variable name="w41_0" index="165" value="1.7173331392486808e-09"/>
  <variable name="w41_1" index="166" value="710"/>
  <variable name="w41_2" index="167" value="-1.3712704052240816e-09"/>
  <variable name="w42_1" index="170" value="709.9999999999992"/>
  <variable name="w43_3" index="176" value="710"/>
  <variable name="w46_0" index="185" value="9.9951158460954151e-10"/>
  <variable name="w46_3" index="188" value="9.9952135457215925e-10"/>
  <variable name="w47_0" index="189" value="709.99999999773161"/>
  <variable name="w47_3" index="192" value="-2.5590907171135768e-10"/>
  <variable name="w48_1" index="194" value="709.9999999999992"/>
  <variable name="w48_2" index="195" value="710"/>
  <variable name="w49_2" index="199" value="710"/>
  <variable name="x0_20" index="221" value="1"/>
  <variable name="x1_16" index="267" value="1"/>
  <variable name="x2_5" index="306" value="-9.6212758972647323e-13"/>
  <variable name="x2_6" index="307" value="9.6212758972647323e-13"/>
  <variable name="x2_49" index="350" value="1"/>
  <variable name="x3_9" index="360" value="-2.2440012857828777e-12"/>
  <variable name="x3_23" index="374" value="1"/>
  <variable name="x3_27" index="378" value="2.2440012857828777e-12"/>
  <variable name="x4_0" index="401" value="1"/>
  <variable name="x5_9" index="460" value="-7.2277657020846716e-13"/>
  <variable name="x5_14" index="465" value="1.000000000003523"/>
  <variable name="x5_48" index="499" value="-2.8000899719928059e-12"/>
  <variable name="x6_4" index="505" value="1"/>
  <variable name="x7_25" index="576" value="1"/>
  <variable name="x8_8" index="609" value="1.0000000000011489"/>
  <variable name="x8_12" index="613" value="-2.8155255904494184e-12"/>
  <variable name="x8_35" index="636" value="-8.33324520499445e-13"/>
  <variable name="x8_41" index="642" value="2.4999735614983367e-12"/>
  <variable name="x9_40" index="691" value="1"/>
  <variable name="x10_6" index="707" value="0.99999999999903788"/>
  <variable name="x10_7" index="708" value="9.6212758972647323e-13"/>
  <variable name="x11_4" index="755" value="-1.44319138458971e-12"/>
  <variable name="x11_5" index="756" value="9.6212758972647323e-13"/>
  <variable name="x11_19" index="770" value="1"/>
  <variable name="x11_34" index="785" value="4.8106379486323671e-13"/>
  <variable name="x12_21" index="822" value="1"/>
  <variable name="x13_33" index="884" value="0.99999999999975531"/>
  <variable name="x13_34" index="885" value="2.1716743672074033e-13"/>
  <variable name="x14_23" index="924" value="1.9303772152954764e-12"/>
  <variable name="x14_27" index="928" value="-1.8993594500824371e-12"/>
  <variable name="x14_30" index="931" value="0.99999999999972433"/>
  <variable name="x14_31" index="932" value="2.3477560726566508e-13"/>
  <variable name="x15_10" index="961" value="1"/>
  <variable name="x16_1" index="1002" value="1"/>
  <variable name="x17_35" index="1086" value="1"/>
  <variable name="x18_31" index="1132" value="0.99999999999976519"/>
  <variable name="x18_32" index="1133" value="2.4469570334731272e-13"/>
  <variable name="x19_0" index="1151" value="1.407762795224709e-12"/>
  <variable name="x19_1" index="1152" value="1.407762795224709e-12"/>
  <variable name="x19_7" index="1158" value="-1.4077627952247098e-12"/>
  <variable name="x19_27" index="1178" value="0.99999999999965539"/>
  <variable name="x19_30" index="1181" value="2.7571346856035226e-13"/>
  <variable name="x19_36" index="1187" value="2.7571346856035231e-13"/>
  <variable name="x19_41" index="1192" value="-2.4999735614983367e-12"/>
  <variable name="x19_44" index="1195" value="8.854256648533643e-13"/>
  <variable name="x20_12" index="1213" value="1"/>
  <variable name="x21_46" index="1297" value="0.99999999999718581"/>
  <variable name="x21_47" index="1298" value="2.814179562309161e-12"/>
  <variable name="x22_9" index="1310" value="1.0000000000029667"/>
  <variable name="x22_14" index="1315" value="-2.9667778559913435e-12"/>
  <variable name="x23_2" index="1353" value="0.99999999999718447"/>
  <variable name="x23_17" index="1368" value="2.815525590449418e-12"/>
  <variable name="x24_24" index="1425" value="1"/>
  <variable name="x25_3" index="1454" value="1"/>
  <variable name="x26_44" index="1545" value="0.9999999999991146"/>
  <variable name="x26_45" index="1546" value="-1.928854849566314e-12"/>
  <variable name="x26_46" index="1547" value="2.814179562309161e-12"/>
  <variable name="x27_36" index="1587" value="-2.2060906838558287e-12"/>
  <variable name="x27_43" index="1594" value="1.000000000002206"/>
  <variable name="x28_8" index="1609" value="2.8155255904493986e-12"/>
  <variable name="x28_12" index="1613" value="2.815525590449418e-12"/>
  <variable name="x28_17" index="1618" value="0.99999999999718447"/>
  <variable name="x28_47" index="1648" value="-2.815525590449418e-12"/>
  <variable name="x29_28" index="1679" value="1"/>
  <variable name="x30_37" index="1738" value="1"/>
  <variable name="x31_38" index="1789" value="1"/>
  <variable name="x32_41" index="1842" value="1"/>
  <variable name="x33_11" index="1862" value="1"/>
  <variable name="x34_43" index="1944" value="-1.928854849566314e-12"/>
  <variable name="x34_45" index="1946" value="1.0000000000019289"/>
  <variable name="x35_15" index="1966" value="1"/>
  <variable name="x36_0" index="2001" value="-1.407762795224709e-12"/>
  <variable name="x36_1" index="2002" value="-1.407762795224709e-12"/>
  <variable name="x36_2" index="2003" value="2.8155255904494192e-12"/>
  <variable name="x36_7" index="2008" value="-1.407762795224709e-12"/>
  <variable name="x36_29" index="2030" value="1"/>
  <variable name="x36_42" index="2043" value="1.4077627952247078e-12"/>
  <variable name="x37_13" index="2064" value="1"/>
  <variable name="x37_14" index="2065" value="-5.5608868620993051e-13"/>
  <variable name="x37_35" index="2086" value="8.33324520499445e-13"/>
  <variable name="x37_43" index="2094" value="-2.772358342895145e-13"/>
  <variable name="x38_32" index="2133" value="0.99999999999975531"/>
  <variable name="x38_33" index="2134" value="2.4469570334731272e-13"/>
  <variable name="x39_18" index="2169" value="1"/>
  <variable name="x40_7" index="2208" value="1.0000000000018272"/>
  <variable name="x40_8" index="2209" value="-3.9644021398999252e-12"/>
  <variable name="x40_34" index="2235" value="2.1372873297738315e-12"/>
  <variable name="x41_23" index="2274" value="-1.9303772152954764e-12"/>
  <variable name="x41_36" index="2287" value="1.0000000000019305"/>
  <variable name="x42_39" index="2340" value="1"/>
  <variable name="x43_5" index="2356" value="1"/>
  <variable name="x44_48" index="2449" value="1"/>
  <variable name="x45_47" index="2498" value="1"/>
  <variable name="x46_4" index="2505" value="1.4077627952247078e-12"/>
  <variable name="x46_42" index="2543" value="0.99999999999859224"/>
  <variable name="x47_34" index="2585" value="0.99999999999716449"/>
  <variable name="x47_48" index="2599" value="2.8000899719928059e-12"/>
  <variable name="x48_22" index="2623" value="1"/>
  <variable name="x49_26" index="2677" value="1"/>
  <variable name="v0_0" index="2701" value="1"/>
  <variable name="v0_2" index="2703" value="1"/>
  <variable name="v1_0" index="2705" value="1.0000000000100004"/>
  <variable name="v1_1" index="2706" value="1"/>
  <variable name="v1_2" index="2707" value="0.99999999999749989"/>
  <variable name="v2_2" index="2711" value="1.9242551794529448e-12"/>
  <variable name="v2_3" index="2712" value="-9.6212758972647242e-13"/>
  <variable name="v3_0" index="2713" value="-8.9760051431315109e-12"/>
  <variable name="v3_2" index="2715" value="1"/>
  <variable name="v4_0" index="2717" value="1"/>
  <variable name="v4_3" index="2720" value="1"/>
  <variable name="v5_0" index="2721" value="-3.9632248599764027e-13"/>
  <variable name="v5_1" index="2722" value="1.0000000000032068"/>
  <variable name="v5_2" index="2723" value="1.0000000000031255"/>
  <variable name="v5_3" index="2724" value="-3.9632248599764027e-13"/>
  <variable name="v6_0" index="2725" value="1"/>
  <variable name="v6_3" index="2728" value="1"/>
  <variable name="v7_2" index="2731" value="1"/>
  <variable name="v8_0" index="2733" value="1"/>
  <variable name="v8_2" index="2735" value="0.9999999999975"/>
  <variable name="v9_1" index="2738" value="1"/>
  <variable name="v10_3" index="2744" value="1"/>
  <variable name="v11_1" index="2746" value="1"/>
  <variable name="v11_2" index="2747" value="1"/>
  <variable name="v11_3" index="2748" value="-4.8106379486323681e-13"/>
  <variable name="v12_2" index="2751" value="1"/>
  <variable name="v13_1" index="2754" value="1"/>
  <variable name="v14_0" index="2757" value="1.0000000000018485"/>
  <variable name="v14_1" index="2758" value="1"/>
  <variable name="v15_3" index="2764" value="1"/>
  <variable name="v16_3" index="2768" value="1"/>
  <variable name="v17_1" index="2770" value="1"/>
  <variable name="v18_0" index="2773" value="1"/>
  <variable name="v18_1" index="2774" value="1"/>
  <variable name="v19_2" index="2779" value="1"/>
  <variable name="v19_3" index="2780" value="1.4077627952247078e-12"/>
  <variable name="v20_1" index="2782" value="1"/>
  <variable name="v20_2" index="2783" value="1"/>
  <variable name="v21_0" index="2785" value="0.99999999999718581"/>
  <variable name="v22_0" index="2789" value="-2.9667778559913435e-12"/>
  <variable name="v22_1" index="2790" value="-2.9667778559913435e-12"/>
  <variable name="v22_2" index="2791" value="-2.9667778559913435e-12"/>
  <variable name="v22_3" index="2792" value="1.0000000000029667"/>
  <variable name="v23_0" index="2793" value="0.99999999999719258"/>
  <variable name="v23_1" index="2794" value="2.8168716185896738e-12"/>
  <variable name="v23_2" index="2795" value="2.8155255904494176e-12"/>
  <variable name="v23_3" index="2796" value="0.99999999999718314"/>
  <variable name="v24_2" index="2799" value="1"/>
  <variable name="v25_3" index="2804" value="1"/>
  <variable name="v27_1" index="2810" value="-2.2060906838558287e-12"/>
  <variable name="v28_0" index="2813" value="1"/>
  <variable name="v28_1" index="2814" value="2.8155255904494261e-12"/>
  <variable name="v28_2" index="2815" value="1"/>
  <variable name="v28_3" index="2816" value="2.8155255904493962e-12"/>
  <variable name="v29_0" index="2817" value="1"/>
  <variable name="v29_1" index="2818" value="1"/>
  <variable name="v30_1" index="2822" value="1"/>
  <variable name="v31_1" index="2826" value="1"/>
  <variable name="v32_0" index="2829" value="1"/>
  <variable name="v33_1" index="2834" value="1"/>
  <variable name="v33_2" index="2835" value="1"/>
  <variable name="v35_0" index="2841" value="1"/>
  <variable name="v35_1" index="2842" value="1"/>
  <variable name="v35_2" index="2843" value="1"/>
  <variable name="v36_0" index="2845" value="1"/>
  <variable name="v36_1" index="2846" value="1"/>
  <variable name="v36_3" index="2848" value="-1.4077627952247076e-12"/>
  <variable name="v37_0" index="2849" value="0.99999999999916667"/>
  <variable name="v37_1" index="2850" value="1"/>
  <variable name="v37_2" index="2851" value="1"/>
  <variable name="v38_0" index="2853" value="1"/>
  <variable name="v38_1" index="2854" value="1"/>
  <variable name="v39_0" index="2857" value="1"/>
  <variable name="v39_2" index="2859" value="1"/>
  <variable name="v40_1" index="2862" value="-4.4829862559144548e-13"/>
  <variable name="v40_2" index="2863" value="-1.8271148101260957e-12"/>
  <variable name="v40_3" index="2864" value="0.9999999999996898"/>
  <variable name="v41_0" index="2865" value="1.9303772152954764e-12"/>
  <variable name="v41_1" index="2866" value="1"/>
  <variable name="v41_2" index="2867" value="-1.9303772152954764e-12"/>
  <variable name="v42_1" index="2870" value="1"/>
  <variable name="v43_3" index="2876" value="1"/>
  <variable name="v46_0" index="2885" value="1.4077627952247082e-12"/>
  <variable name="v46_3" index="2888" value="1.4077627952247078e-12"/>
  <variable name="v47_0" index="2889" value="0.99999999999716449"/>
  <variable name="v48_1" index="2894" value="1"/>
  <variable name="v48_2" index="2895" value="1"/>
  <variable name="v49_2" index="2899" value="1"/>
 </variables>
</CPLEXSolution>
